20 64 
1 5 1
1 7 1
1 8 1
1 9 1
1 10 1
1 11 1
1 16 1
1 19 1
2 5 1
2 6 1
2 7 1
2 8 1
2 9 1
2 10 1
2 12 1
2 13 1
2 14 1
2 15 1
2 16 1
3 5 1
3 6 1
3 7 1
3 8 1
3 9 1
3 12 1
3 14 1
3 18 1
3 20 1
4 5 1
4 6 1
4 8 1
4 11 1
4 20 1
5 6 1
5 7 1
5 10 1
5 11 1
5 14 1
5 15 1
5 17 1
5 19 1
6 9 1
6 10 1
6 12 1
6 13 1
6 15 1
6 16 1
6 19 1
6 20 1
7 20 1
8 11 1
9 12 1
9 17 1
9 18 1
9 19 1
11 13 1
11 14 1
11 18 1
12 13 1
13 15 1
15 16 1
15 17 1
16 17 1
17 18 1
